objective value:                 3.14186700019613e-06
x_1_2                                               1 	(obj:0)
x_2_2                                               1 	(obj:0)
x_3_2                                               1 	(obj:0)
x_4_3                                               1 	(obj:0)
x_5_3                                               1 	(obj:0)
x_6_2                                               1 	(obj:0)
x_7_2                                               1 	(obj:0)
x_8_2                                               1 	(obj:0)
x_9_3                                               1 	(obj:0)
x_10_3                                              1 	(obj:0)
x_11_2                                              1 	(obj:0)
x_12_2                                              1 	(obj:0)
x_13_3                                              1 	(obj:0)
x_14_2                                              1 	(obj:0)
x_15_2                                              1 	(obj:0)
x_16_3                                              1 	(obj:0)
x_17_2                                              1 	(obj:0)
x_18_3                                              1 	(obj:0)
x_19_2                                              1 	(obj:0)
x_20_2                                              1 	(obj:0)
x_21_3                                              1 	(obj:0)
x_22_2                                              1 	(obj:0)
x_23_2                                              1 	(obj:0)
x_24_3                                              1 	(obj:0)
x_25_3                                              1 	(obj:0)
x_26_3                                              1 	(obj:0)
x_27_2                                              1 	(obj:0)
x_28_3                                              1 	(obj:0)
x_29_3                                              1 	(obj:0)
x_30_3                                              1 	(obj:0)
x_31_2                                              1 	(obj:0)
x_32_3                                              1 	(obj:0)
x_33_2                                              1 	(obj:0)
x_34_2                                              1 	(obj:0)
x_35_3                                              1 	(obj:0)
x_36_2                                              1 	(obj:0)
x_37_3                              0.999999999999999 	(obj:0)
x_38_3                              0.999999999999999 	(obj:0)
x_39_2                                              1 	(obj:0)
x_40_2                                              1 	(obj:0)
ind_2                                               1 	(obj:0)
ind_3                                               1 	(obj:0)
abs_3_2                                             1 	(obj:0)
epsI                             3.14186700019613e-06 	(obj:1)
prodt_x_39_2_t_x_40_2_coh_2                         1 	(obj:0)
prodt_x_1_2_t_x_2_2_more_coh_2          10.2792352515 	(obj:0)
prodt_x_2_2_t_x_4_2_more_coh_2           12.561289573 	(obj:0)
prodt_x_3_2_t_x_4_2_more_coh_2          5.75908084425 	(obj:0)
prodt_x_6_2_t_x_7_2_more_coh_2          12.4576025935 	(obj:0)
prodt_x_7_2_t_x_8_2_more_coh_2           9.9737860315 	(obj:0)
prodt_x_8_2_t_x_10_2_more_coh_2         5.50690817975 	(obj:0)
prodt_x_11_2_t_x_12_2_more_coh_2         9.0620281405 	(obj:0)
prodt_x_12_2_t_x_14_2_more_coh_2        3.01900057375 	(obj:0)
prodt_x_14_2_t_x_15_2_more_coh_2          9.968407386 	(obj:0)
prodt_x_15_2_t_x_16_2_more_coh_2         7.4638294795 	(obj:0)
prodt_x_17_2_t_x_21_2_more_coh_2          4.648748991 	(obj:0)
prodt_x_19_2_t_x_21_2_more_coh_2         6.4958881975 	(obj:0)
prodt_x_20_2_t_x_23_2_more_coh_2          4.328943744 	(obj:0)
prodt_x_22_2_t_x_26_2_more_coh_2         6.8869937425 	(obj:0)
prodt_x_23_2_t_x_25_2_more_coh_2           5.13794612 	(obj:0)
prodt_x_27_2_t_x_28_2_more_coh_2         3.9629153095 	(obj:0)
prodt_x_31_2_t_x_32_2_more_coh_2          1.111486378 	(obj:0)
prodt_x_33_2_t_x_34_2_more_coh_2          4.628597587 	(obj:0)
prodt_x_34_2_t_x_35_2_more_coh_2    0.912480371000002 	(obj:0)
prodt_x_36_2_t_x_37_2_more_coh_2          1.827201396 	(obj:0)
prodt_x_4_3_t_x_8_3_more_coh_3           15.208158422 	(obj:0)
prodt_x_5_3_t_x_10_3_more_coh_3          11.423994771 	(obj:0)
prodt_x_9_3_t_x_10_3_more_coh_3      4.82256293933333 	(obj:0)
prodt_x_10_3_t_x_16_3_more_coh_3         5.8225232045 	(obj:0)
prodt_x_13_3_t_x_14_3_more_coh_3     8.46626019933333 	(obj:0)
prodt_x_16_3_t_x_18_3_more_coh_3         8.3260257425 	(obj:0)
prodt_x_18_3_t_x_19_3_more_coh_3     7.59176061466667 	(obj:0)
prodt_x_21_3_t_x_22_3_more_coh_3         6.0864911185 	(obj:0)
prodt_x_24_3_t_x_27_3_more_coh_3          5.376466414 	(obj:0)
prodt_x_25_3_t_x_27_3_more_coh_3          9.434105971 	(obj:0)
prodt_x_26_3_t_x_27_3_more_coh_3     4.75532355433333 	(obj:0)
prodt_x_28_3_t_x_31_3_more_coh_3        2.52844272925 	(obj:0)
prodt_x_29_3_t_x_30_3_more_coh_3          5.105508636 	(obj:0)
prodt_x_30_3_t_x_34_3_more_coh_3          5.481044977 	(obj:0)
prodt_x_32_3_t_x_33_3_more_coh_3          1.507452713 	(obj:0)
prodt_x_35_3_t_x_38_3_more_coh_3          0.364931724 	(obj:0)
prodt_x_37_3_t_x_38_3_more_coh_3           1.60917302 	(obj:0)
prodt_x_1_2_t_x_4_2_more_irrev1_2_1    -1.59393019246386 	(obj:0)
prodt_x_1_2_t_x_4_2_more_irrev2_2_1     1.59393019246387 	(obj:0)
prodt_x_1_2_t_x_4_3_more_irrev1_3_1     1.63768833666163 	(obj:0)
prodt_x_1_2_t_x_4_3_more_irrev2_3_1    -1.63768833666163 	(obj:0)
prodt_x_1_2_t_x_4_3_more_irrev1_3_2    -1.63768833666163 	(obj:0)
prodt_x_2_2_t_x_4_3_more_irrev1_3_2     0.95503458363326 	(obj:0)
prodt_x_3_2_t_x_7_3_more_irrev1_3_2    0.373665185674692 	(obj:0)
prodt_x_4_3_t_x_5_2_more_irrev1_3_2     3.31715300958651 	(obj:0)
prodt_x_5_3_t_x_6_2_more_irrev1_3_2    -2.05465266589987 	(obj:0)
prodt_x_6_2_t_x_7_3_more_irrev1_3_2    -3.18184980960874 	(obj:0)
prodt_x_7_2_t_x_9_3_more_irrev1_3_2     2.32722896966315 	(obj:0)
prodt_x_8_2_t_x_14_3_more_irrev1_3_2   -0.835499319597207 	(obj:0)
prodt_x_9_3_t_x_10_2_more_irrev1_3_2   -0.509872580268334 	(obj:0)
prodt_x_10_3_t_x_11_2_more_irrev1_3_2     3.95075450192998 	(obj:0)
prodt_x_11_2_t_x_12_3_more_irrev1_3_2    -4.49122344597089 	(obj:0)
prodt_x_12_2_t_x_13_3_more_irrev1_3_2     1.42099379406275 	(obj:0)
prodt_x_13_3_t_x_14_2_more_irrev1_3_2    -1.38224117642659 	(obj:0)
prodt_x_14_2_t_x_16_3_more_irrev1_3_2    0.237677568206203 	(obj:0)
prodt_x_15_2_t_x_18_3_more_irrev1_3_2     2.09372268114403 	(obj:0)
prodt_x_16_3_t_x_17_2_more_irrev1_3_2    -1.43286307725829 	(obj:0)
prodt_x_17_2_t_x_21_3_more_irrev1_3_2     3.66390869391439 	(obj:0)
prodt_x_18_3_t_x_19_2_more_irrev1_3_2    -1.40021318142484 	(obj:0)
prodt_x_19_2_t_x_23_3_more_irrev1_3_2 -0.00625395979003177 	(obj:0)
prodt_x_20_2_t_x_22_3_more_irrev1_3_2      3.7063125577991 	(obj:0)
prodt_x_21_3_t_x_26_2_more_irrev1_3_2   -0.470163833464378 	(obj:0)
prodt_x_22_2_t_x_23_3_more_irrev1_3_2    -2.01609027800094 	(obj:0)
prodt_x_23_2_t_x_25_3_more_irrev1_3_2     -1.5177152947951 	(obj:0)
prodt_x_24_3_t_x_32_2_more_irrev1_3_2   -0.896796052797623 	(obj:0)
prodt_x_25_3_t_x_27_2_more_irrev1_3_2     1.02506202817656 	(obj:0)
prodt_x_26_3_t_x_27_2_more_irrev1_3_2    0.625027905519187 	(obj:0)
prodt_x_27_2_t_x_28_3_more_irrev1_3_2     1.40821578060551 	(obj:0)
prodt_x_28_3_t_x_33_2_more_irrev1_3_2  -0.0301652051024577 	(obj:0)
prodt_x_29_3_t_x_34_2_more_irrev1_3_2    0.391423792806417 	(obj:0)
prodt_x_30_3_t_x_34_2_more_irrev1_3_2  -0.0136180144602681 	(obj:0)
prodt_x_31_2_t_x_32_3_more_irrev1_3_2    0.277461603606397 	(obj:0)
prodt_x_32_3_t_x_33_2_more_irrev1_3_2    -1.47744845784839 	(obj:0)
prodt_x_33_2_t_x_34_3_more_irrev1_3_2      1.0086217209626 	(obj:0)
prodt_x_34_2_t_x_35_3_more_irrev1_3_2   0.0263143832054407 	(obj:0)
prodt_x_35_3_t_x_37_2_more_irrev1_3_2   -0.458444466722401 	(obj:0)
prodt_x_36_2_t_x_38_3_more_irrev1_3_2   -0.833509214640666 	(obj:0)
prodt_x_37_3_t_x_39_2_more_irrev1_3_2     1.04184068565595 	(obj:0)
prodt_x_38_3_t_x_39_2_more_irrev1_3_2     1.96785427176783 	(obj:0)
prodt_x_1_2_t_x_4_3_more_irrev2_3_2     1.63768833666163 	(obj:0)
prodt_x_2_2_t_x_4_3_more_irrev2_3_2    -0.95503458363326 	(obj:0)
prodt_x_3_2_t_x_7_3_more_irrev2_3_2   -0.373665185674693 	(obj:0)
prodt_x_4_3_t_x_5_2_more_irrev2_3_2    -3.31715300958354 	(obj:0)
prodt_x_5_3_t_x_6_2_more_irrev2_3_2     2.05465266589986 	(obj:0)
prodt_x_6_2_t_x_7_3_more_irrev2_3_2     3.18184980960874 	(obj:0)
prodt_x_7_2_t_x_9_3_more_irrev2_3_2    -2.32722896966315 	(obj:0)
prodt_x_8_2_t_x_14_3_more_irrev2_3_2    0.835499319597207 	(obj:0)
prodt_x_9_3_t_x_10_2_more_irrev2_3_2    0.509872580268334 	(obj:0)
prodt_x_10_3_t_x_11_2_more_irrev2_3_2    -3.95075450192998 	(obj:0)
prodt_x_11_2_t_x_12_3_more_irrev2_3_2     4.49122344597088 	(obj:0)
prodt_x_12_2_t_x_13_3_more_irrev2_3_2    -1.42099379406275 	(obj:0)
prodt_x_13_3_t_x_14_2_more_irrev2_3_2     1.38224117642659 	(obj:0)
prodt_x_14_2_t_x_16_3_more_irrev2_3_2   -0.237677568206204 	(obj:0)
prodt_x_15_2_t_x_18_3_more_irrev2_3_2    -2.09372268114403 	(obj:0)
prodt_x_16_3_t_x_17_2_more_irrev2_3_2     1.43286307725829 	(obj:0)
prodt_x_17_2_t_x_21_3_more_irrev2_3_2    -3.66390869391439 	(obj:0)
prodt_x_18_3_t_x_19_2_more_irrev2_3_2     1.40021318142484 	(obj:0)
prodt_x_19_2_t_x_23_3_more_irrev2_3_2  0.00625395979003265 	(obj:0)
prodt_x_20_2_t_x_22_3_more_irrev2_3_2     -3.7063125577991 	(obj:0)
prodt_x_21_3_t_x_26_2_more_irrev2_3_2    0.470163833464378 	(obj:0)
prodt_x_22_2_t_x_23_3_more_irrev2_3_2     2.01609027800094 	(obj:0)
prodt_x_23_2_t_x_25_3_more_irrev2_3_2     1.51771529479509 	(obj:0)
prodt_x_24_3_t_x_32_2_more_irrev2_3_2    0.896796052797623 	(obj:0)
prodt_x_25_3_t_x_27_2_more_irrev2_3_2    -1.02506202817656 	(obj:0)
prodt_x_26_3_t_x_27_2_more_irrev2_3_2   -0.625027905519187 	(obj:0)
prodt_x_27_2_t_x_28_3_more_irrev2_3_2    -1.40821578060551 	(obj:0)
prodt_x_28_3_t_x_33_2_more_irrev2_3_2   0.0301652051024626 	(obj:0)
prodt_x_29_3_t_x_34_2_more_irrev2_3_2   -0.391423792806381 	(obj:0)
prodt_x_30_3_t_x_34_2_more_irrev2_3_2   0.0136180144602681 	(obj:0)
prodt_x_31_2_t_x_32_3_more_irrev2_3_2   -0.277461603606397 	(obj:0)
prodt_x_32_3_t_x_33_2_more_irrev2_3_2     1.47744845784839 	(obj:0)
prodt_x_33_2_t_x_34_3_more_irrev2_3_2     -1.0086217209626 	(obj:0)
prodt_x_34_2_t_x_35_3_more_irrev2_3_2  -0.0263143832054398 	(obj:0)
prodt_x_35_3_t_x_37_2_more_irrev2_3_2    0.458444466722401 	(obj:0)
prodt_x_36_2_t_x_38_3_more_irrev2_3_2    0.833509214640666 	(obj:0)
prodt_x_37_3_t_x_39_2_more_irrev2_3_2     1.04184068565594 	(obj:0)
prodt_x_38_3_t_x_39_2_more_irrev2_3_2     1.96785427176783 	(obj:0)
SCIP Status        : solving was interrupted [time limit reached]
Total Time         :    3600.00
  solving          :    3600.00
  presolving       :       0.16 (included in solving)
  reading          :       0.00
  copying          :       1.19 (105 #copies) (minimal 0.00, maximal 0.02, average 0.01)
Original Problem   :
  Problem name     : ../instances/Pot3NonCycle/Pot3NonCycle_T_40B_1t.txt.spa
  Variables        : 181 (180 binary, 0 integer, 0 implicit integer, 1 continuous)
  Constraints      : 333 initial, 333 maximal
  Objective sense  : maximize
Presolved Problem  :
  Problem name     : t_../instances/Pot3NonCycle/Pot3NonCycle_T_40B_1t.txt.spa
  Variables        : 1230 (172 binary, 0 integer, 16 implicit integer, 1042 continuous)
  Constraints      : 4291 initial, 4461 maximal
Presolvers         :   ExecTime  SetupTime  Calls  FixedVars   AggrVars   ChgTypes  ChgBounds   AddHoles    DelCons    AddCons   ChgSides   ChgCoefs
  boundshift       :       0.00       0.00      0          0          0          0          0          0          0          0          0          0
  components       :       0.00       0.00      1          0          0          0          0          0          0          0          0          0
  convertinttobin  :       0.00       0.00      0          0          0          0          0          0          0          0          0          0
  domcol           :       0.01       0.00      1          0          0          0          0          0          0          0          0          0
  dualagg          :       0.00       0.00      0          0          0          0          0          0          0          0          0          0
  dualinfer        :       0.00       0.00      0          0          0          0          0          0          0          0          0          0
  gateextraction   :       0.00       0.00      3          0          0          0          0          0        108         34          0          0
  implfree         :       0.00       0.00      0          0          0          0          0          0          0          0          0          0
  implics          :       0.00       0.00      4          0          0          0          0          0          0          0          0          0
  inttobinary      :       0.00       0.00      0          0          0          0          0          0          0          0          0          0
  redvub           :       0.00       0.00      0          0          0          0          0          0          0          0          0          0
  stuffing         :       0.00       0.00      1          0          0          0          0          0          0          0          0          0
  trivial          :       0.00       0.00      7          0          0          0          0          0          0          0          0          0
  tworowbnd        :       0.00       0.00      0          0          0          0          0          0          0          0          0          0
  dualfix          :       0.00       0.00      7          4          0          0          0          0          0          0          0          0
  genvbounds       :       0.00       0.00      0          0          0          0          0          0          0          0          0          0
  probing          :       0.09       0.00      1          0          0          0          4          0          0          0          0          0
  pseudoobj        :       0.00       0.00      0          0          0          0          0          0          0          0          0          0
  varbound         :       0.00       0.00      9          0          0          0          0          0         28         28          0          0
  setppc           :       0.00       0.00     12          0          0          0          0          0          0          0          0          0
  and              :       0.00       0.00      4          0         12          0          0          0         12          0          0          0
  linear           :       0.04       0.00      9          3          1          0          4          0          7          0         12         12
  logicor          :       0.00       0.00      7          0          0          0          0          0          0          0          0          0
  bounddisjunction :       0.00       0.00      0          0          0          0          0          0          0          0          0          0
  quadratic        :       0.02       0.00      2          0          0          0          0          0          0       4051          0          0
  root node        :          -          -      -          1          -          -         14          -          -          -          -          -
Constraints        :     Number  MaxNumber  #Separate #Propagate    #EnfoLP    #EnfoPS     #Check   #ResProp    Cutoffs    DomReds       Cuts    Applied      Conss   Children
  integral         :          0          0          0          0     945342          0     227470          0          0      29725          0          0          5    1460124
  varbound         :       1885       1885         18    4799546     213483          0     227445    1129988      11083   11240354      11302      11302          0          0
  setppc           :        210+       212         18    4659499     197837          0      88639    1975584        596    1217440          0          0          0          0
  and              :         22         22      16378     161387          0          0      66581      46040          0       1705        278        269          0          0
  linear           :       2099       2099         18    4800083     197845          0      63792    1100321      93520   60622806    4318209    4317574          0          0
  logicor          :         75+       232         10     530738          0          0          0     347559        141       6572          1          1          0          0
  bounddisjunction :          0+       113          0    1412807          0          0          0      23189        727     409449          0          0          0          0
  countsols        :          0          0          0          0         15          0        109          0          0          0          0          0          0          0
Constraint Timings :  TotalTime  SetupTime   Separate  Propagate     EnfoLP     EnfoPS      Check    ResProp    SB-Prop
  integral         :      16.85       0.00       0.00       0.00      16.82       0.00       0.03       0.00       0.00
  varbound         :      20.15       0.00       0.00      11.85       0.84       0.00       7.16       0.19       0.11
  setppc           :      25.67       0.00       0.00      24.98       0.04       0.00       0.05       0.44       0.16
  and              :       0.08       0.00       0.01       0.01       0.00       0.00       0.03       0.03       0.00
  linear           :     122.51       0.00       0.02     108.82       8.72       0.00       3.61       1.03       0.31
  logicor          :       0.73       0.00       0.00       0.45       0.00       0.00       0.00       0.28       0.00
  bounddisjunction :       1.42       0.00       0.00       1.42       0.00       0.00       0.00       0.00       0.00
  countsols        :       0.00       0.00       0.00       0.00       0.00       0.00       0.00       0.00       0.00
Propagators        : #Propagate   #ResProp    Cutoffs    DomReds
  dualfix          :          2          0          0          0
  genvbounds       :          0          0          0          0
  obbt             :          0          0          0          0
  probing          :          0          0          0          0
  pseudoobj        :    4248752          0      19550         13
  redcost          :    1721370          0          0        923
  rootredcost      :         18          0          0          0
  vbounds          :    5586643         57          0        552
Propagator Timings :  TotalTime  SetupTime   Presolve  Propagate    ResProp    SB-Prop
  dualfix          :       0.00       0.00       0.00       0.00       0.00       0.00
  genvbounds       :       0.40       0.00       0.00       0.40       0.00       0.00
  obbt             :       0.00       0.00       0.00       0.00       0.00       0.00
  probing          :       0.09       0.00       0.09       0.00       0.00       0.00
  pseudoobj        :       6.30       0.00       0.00       6.30       0.00       0.00
  redcost          :       3.77       0.00       0.00       3.77       0.00       0.00
  rootredcost      :       0.65       0.00       0.00       0.65       0.00       0.00
  vbounds          :       1.58       0.00       0.00       1.58       0.00       0.00
Conflict Analysis  :       Time      Calls    Success    DomReds  Conflicts   Literals    Reconvs ReconvLits   LP Iters
  propagation      :       7.23      32113      25711          -     283328       89.2        265       82.6          -
  infeasible LP    :       1.98      15184         22          -        303       41.8          0        0.0          0
  bound exceed. LP :       0.00          0          0          -          0        0.0          0        0.0          0
  strong branching :       0.00          0          0          -          0        0.0          0        0.0          0
  pseudo solution  :       0.00          0          0          -          0        0.0          0        0.0          -
  applied globally :       0.17          -          -          0       7495       24.8          -          -          -
  applied locally  :          -          -          -          0      10496       78.0          -          -          -
Separators         :   ExecTime  SetupTime      Calls    Cutoffs    DomReds       Cuts    Applied      Conss
  cut pool         :       0.00                    16          -          -        885          -          -    (maximal pool size: 626)
  cgmip            :       0.00       0.00          0          0          0          0          0          0
  clique           :       0.01       0.00         17          0          0         71         36          0
  closecuts        :       0.00       0.00          0          0          0          0          0          0
  cmir             :       0.06       0.00         10          0          0        217        147          0
  disjunctive      :       0.00       0.00          0          0          0          0          0          0
  eccuts           :       0.00       0.00          0          0          0          0          0          0
  flowcover        :       0.72       0.00         15          0          0        272         39          0
  gomory           :       0.14       0.00         10          0          0          9          8          0
  impliedbounds    :       0.01       0.00         17          0          0        906         85          0
  intobj           :       0.00       0.00          0          0          0          0          0          0
  mcf              :       0.00       0.00          1          0          0          0          0          0
  oddcycle         :       0.00       0.00          0          0          0          0          0          0
  rapidlearning    :       0.00       0.00          0          0          0          0          0          0
  strongcg         :       0.20       0.00         17          0          0          0          0          0
  zerohalf         :       0.00       0.00          0          0          0          0          0          0
Pricers            :   ExecTime  SetupTime      Calls       Vars
  problem variables:       0.00          -          0          0
Branching Rules    :   ExecTime  SetupTime   BranchLP  BranchExt   BranchPS    Cutoffs    DomReds       Cuts      Conss   Children
  allfullstrong    :       0.00       0.00          0          0          0          0          0          0          0          0
  cloud            :       0.00       0.00          0          0          0          0          0          0          0          0
  distribution     :       0.00       0.00          0          0          0          0          0          0          0          0
  fullstrong       :       0.00       0.00          0          0          0          0          0          0          0          0
  inference        :       0.00       0.00          0          0          0          0          0          0          0          0
  leastinf         :       0.00       0.00          0          0          0          0          0          0          0          0
  mostinf          :       0.00       0.00          0          0          0          0          0          0          0          0
  multaggr         :       0.00       0.00          0          0          0          0          0          0          0          0
  nodereopt        :       0.00       0.00          0          0          0          0          0          0          0          0
  pscost           :       0.00       0.00          0          0          0          0          0          0          0          0
  random           :       0.00       0.00          0          0          0          0          0          0          0          0
  relpscost        :      16.39       0.00     731858          0          0          0      29725          0          3    1460124
Primal Heuristics  :   ExecTime  SetupTime      Calls      Found       Best
  LP solutions     :       0.00          -          -         15          -
  pseudo solutions :       0.00          -          -          0          -
  strong branching :       0.00          -          -          0          -
  SpaGreedy        :    1644.73       0.00     172743          0          0
  actconsdiving    :       0.00       0.00          0          0          0
  bound            :       0.00       0.00          0          0          0
  clique           :       0.00       0.00          0          0          0
  coefdiving       :      43.04       0.00       5784          0          0
  crossover        :      16.61       0.00         35          7          0
  dins             :       0.00       0.00          0          0          0
  distributiondivin:      52.92       0.00       5783          0          0
  dualval          :       0.00       0.00          0          0          0
  feaspump         :       0.60       0.00          9          1          0
  fixandinfer      :       0.00       0.00          0          0          0
  fracdiving       :      41.14       0.00       5784          0          0
  guideddiving     :      38.34       0.00       5784          0          0
  indicator        :       0.08       0.00          0          0          0
  intdiving        :       0.00       0.00          0          0          0
  intshifting      :       1.03       0.00        169          0          0
  linesearchdiving :      40.10       0.00       5783          1          1
  localbranching   :       0.00       0.00          0          0          0
  mutation         :       0.00       0.00          0          0          0
  nlpdiving        :       0.00       0.00          0          0          0
  objpscostdiving  :      17.95       0.00       2892         50          0
  octane           :       0.00       0.00          0          0          0
  ofins            :       0.00       0.00          0          0          0
  oneopt           :       0.24       0.00         18          0          0
  proximity        :       0.00       0.00          0          0          0
  pscostdiving     :      47.63       0.00       5784          1          1
  randrounding     :       3.43       0.00     155477          0          0
  rens             :       0.00       0.00          0          0          0
  reoptsols        :       0.00       0.00          0          0          0
  rins             :       3.15       0.00         52          1          0
  rootsoldiving    :      15.41       0.00       2892         46          0
  rounding         :       0.58       0.00      12047          0          0
  shiftandpropagate:       0.01       0.00          1          1          1
  shifting         :       1.73       0.00       5718          0          0
  simplerounding   :       0.08       0.00          0          0          0
  subnlp           :       0.18       0.00          0          0          0
  trivial          :       0.00       0.00          2          0          0
  trivialnegation  :       0.00       0.00          0          0          0
  trysol           :       0.08       0.00          0          0          0
  twoopt           :       0.00       0.00          0          0          0
  undercover       :       0.00       0.00          1          0          0
  vbounds          :       0.00       0.00          0          0          0
  veclendiving     :      42.16       0.00       5784          0          0
  zeroobj          :       0.00       0.00          0          0          0
  zirounding       :       0.29       0.00       1000          0          0
  other solutions  :          -          -          -          0          -
Diving Statistics  :      Calls      Nodes   LP Iters Backtracks   MinDepth   MaxDepth   AvgDepth  NLeafSols  MinSolDpt  MaxSolDpt  AvgSolDpt
  actconsdiving    :          0          -          -          -          -          -          -          -          -          -          -
  coefdiving       :       5784      70018     924577       3330         28         81       38.4          -          -          -          -
  distributiondivin:       5783      58870     785924       1880         25         82       39.4          -          -          -          -
  fracdiving       :       5784      69059     869978       1052         27         71       39.6          -          -          -          -
  guideddiving     :       5784      67659     802126       1283         26         90       38.3          -          -          -          -
  linesearchdiving :       5783      68987     829011       1388         26         49       38.5          -          -          -          -
  pscostdiving     :       5784      71939     877443       1303         28         88       39.5          -          -          -          -
  veclendiving     :       5784      70097     904587       2513         26         49       38.9          -          -          -          -
LP                 :       Time      Calls Iterations  Iter/call   Iter/sec  Time-0-It Calls-0-It
  primal LP        :       0.00          2          0       0.00          -       0.00          2
  dual LP          :     933.30    1525302   22885238      15.11   24520.77      55.35      11113
  lex dual LP      :       0.00          0          0       0.00          -
  barrier LP       :       0.00          0          0       0.00          -       0.00          0
  diving/probing LP:     215.16     220854    6504611      29.45   30231.51
  strong branching :       8.50       3064     156614      51.11   18425.18
    (at root node) :          -         49      10292     210.04          -
  conflict analysis:       0.00          0          0       0.00          -
B&B Tree           :
  number of runs   :          1
  nodes            :    1226940 (730062 internal, 496878 leaves)
  nodes (total)    :    1226940 (730062 internal, 496878 leaves)
  nodes left       :     231243
  max depth        :         48
  max depth (total):         48
  backtracks       :     296173 (24.1%)
  delayed cutoffs  :       1942
  repropagations   :      19684 (418327 domain reductions, 1772 cutoffs)
  avg switch length:       5.41
  switching time   :     231.48
Root Node          :
  First LP value   : +3.00000000000000e+00
  First LP Iters   :        894 (44700.00 Iter/sec)
  First LP Time    :       0.02
  Final Dual Bound : +8.64188411684228e-01
  Final Root Iters :       4010
Solution           :
  Solutions found  :        123 (18 improvements)
  First Solution   : +0.00000000000000e+00   (in run 1, after 1 nodes, 0.19 seconds, depth 28, found by <shiftandpropagate>)
  Gap First Sol.   :   infinite
  Gap Last Sol.    :   15692.60 %
  Primal Bound     : +3.14186700019613e-06   (in run 1, after 472741 nodes, 1521.26 seconds, depth 46, found by <linesearchdiving>)
  Dual Bound       : +4.82996018132398e-04
  Gap              :   15272.90 %
  Avg. Gap         :      99.45 % (358011.98 primal-dual integral)
